NAME: nw3
TYPE: TSP
COMMENT: 130 city problem (Churritz)
DIMENSION: 130
EDGE_WEIGHT_TYPE: EUC_2D
NODE_COORD_SECTION
1 334.5909245845 161.7809319139
2 397.6446634067 262.8165330708
3 503.8741827107 172.8741151168
EOF
